db/data/6401163831060258316323166452705421011.z3.out
sat
-------------------
176.512590904
